(set-option :print-success false)
(set-logic QF_UF)
(declare-sort x195 0)
(declare-sort x211 0)
(declare-fun x401 () Bool)
(declare-fun x372 () Bool)
(declare-fun x48 () Bool)
(declare-fun x21 () Bool)
(declare-fun x155 () Bool)
(declare-fun x233 () x195)
(declare-fun x343 () Bool)
(declare-fun x69 () Bool)
(declare-fun x364 () Bool)
(declare-fun x263 () Bool)
(declare-fun x345 () x211)
(declare-fun x373 () Bool)
(declare-fun x128 () Bool)
(declare-fun x363 () Bool)
(declare-fun x108 () Bool)
(declare-fun x23 () Bool)
(declare-fun x54 () Bool)
(declare-fun x278 () Bool)
(declare-fun x71 () Bool)
(declare-fun x52 () Bool)
(declare-fun x104 () Bool)
(declare-fun x10 () Bool)
(declare-fun x56 () Bool)
(declare-fun x94 () Bool)
(declare-fun x284 () Bool)
(declare-fun x330 () Bool)
(declare-fun x162 () Bool)
(declare-fun x252 () x195)
(declare-fun x199 () Bool)
(declare-fun x305 () Bool)
(declare-fun x338 () Bool)
(declare-fun x405 () Bool)
(declare-fun x53 () Bool)
(declare-fun x337 () Bool)
(declare-fun x11 () Bool)
(declare-fun x138 () Bool)
(declare-fun x191 () Bool)
(declare-fun x245 () Bool)
(declare-fun x315 (x211) x195)
(declare-fun x141 () Bool)
(declare-fun x324 () x195)
(declare-fun x396 () Bool)
(declare-fun x226 () Bool)
(declare-fun x70 () Bool)
(declare-fun x134 () Bool)
(declare-fun x320 () Bool)
(declare-fun x304 () Bool)
(declare-fun x57 () Bool)
(declare-fun x218 () Bool)
(declare-fun x232 () Bool)
(declare-fun x173 () Bool)
(declare-fun x347 () x195)
(declare-fun x200 () Bool)
(declare-fun x181 () Bool)
(declare-fun x18 () Bool)
(declare-fun x376 () x211)
(declare-fun x335 () Bool)
(declare-fun x2 () Bool)
(declare-fun x339 () Bool)
(declare-fun x352 () Bool)
(declare-fun x369 () Bool)
(declare-fun x354 () Bool)
(declare-fun x300 () Bool)
(declare-fun x283 () Bool)
(declare-fun x38 () x195)
(declare-fun x312 () Bool)
(declare-fun x63 () Bool)
(declare-fun x42 () Bool)
(declare-fun x140 () Bool)
(declare-fun x87 () x211)
(declare-fun x177 () Bool)
(declare-fun x4 () Bool)
(declare-fun x394 () Bool)
(declare-fun x198 () Bool)
(declare-fun x223 () Bool)
(declare-fun x182 () Bool)
(declare-fun x122 () x211)
(declare-fun x403 () Bool)
(declare-fun x72 () x195)
(declare-fun x158 () Bool)
(declare-fun x76 () x195)
(declare-fun x92 () Bool)
(declare-fun x287 () Bool)
(declare-fun x311 () Bool)
(declare-fun x255 () Bool)
(declare-fun x184 () x211)
(declare-fun x28 () Bool)
(declare-fun x274 () Bool)
(declare-fun x7 () Bool)
(declare-fun x125 () x195)
(declare-fun x346 () Bool)
(declare-fun x152 () Bool)
(declare-fun x109 () Bool)
(declare-fun x316 () Bool)
(declare-fun x127 () x211)
(declare-fun x194 () x211)
(declare-fun x159 () Bool)
(declare-fun x79 () Bool)
(declare-fun x197 () Bool)
(declare-fun x281 () Bool)
(declare-fun x231 () x211)
(declare-fun x40 () Bool)
(declare-fun x19 () x211)
(declare-fun x361 () Bool)
(declare-fun x326 () Bool)
(declare-fun x84 () Bool)
(declare-fun x209 () Bool)
(declare-fun x146 () Bool)
(declare-fun x201 () x211)
(declare-fun x266 () Bool)
(declare-fun x377 () Bool)
(declare-fun x59 () Bool)
(declare-fun x298 () Bool)
(declare-fun x98 () Bool)
(declare-fun x333 () Bool)
(declare-fun x174 () Bool)
(declare-fun x260 () Bool)
(declare-fun x154 () Bool)
(declare-fun x276 () Bool)
(declare-fun x221 () x195)
(declare-fun x196 () Bool)
(declare-fun x240 () Bool)
(declare-fun x160 () Bool)
(declare-fun x362 () Bool)
(declare-fun x331 () Bool)
(declare-fun x358 () Bool)
(declare-fun x46 () x211)
(declare-fun x307 () x211)
(declare-fun x33 () Bool)
(declare-fun x355 () Bool)
(declare-fun x288 () Bool)
(declare-fun x100 () Bool)
(declare-fun x29 () Bool)
(declare-fun x6 () x195)
(declare-fun x37 () Bool)
(declare-fun x113 () Bool)
(declare-fun x39 () Bool)
(declare-fun x329 () Bool)
(declare-fun x65 () x195)
(declare-fun x51 (x211 x211) Bool)
(declare-fun x241 () Bool)
(declare-fun x151 () Bool)
(declare-fun x124 () Bool)
(declare-fun x268 () x211)
(declare-fun x348 () Bool)
(declare-fun x400 () Bool)
(declare-fun x257 () x211)
(declare-fun x286 () x195)
(declare-fun x295 () x211)
(declare-fun x387 () Bool)
(declare-fun x62 () Bool)
(declare-fun x228 () Bool)
(declare-fun x321 () Bool)
(declare-fun x292 () x211)
(declare-fun x271 () Bool)
(declare-fun x404 () Bool)
(declare-fun x25 (x195 x195) x211)
(declare-fun x368 () Bool)
(declare-fun x349 () x211)
(declare-fun x350 () x211)
(declare-fun x327 () Bool)
(declare-fun x183 () Bool)
(declare-fun x203 () Bool)
(declare-fun x58 () x195)
(declare-fun x313 () x211)
(declare-fun x16 () Bool)
(declare-fun x230 () x195)
(declare-fun x80 () Bool)
(declare-fun x111 () Bool)
(declare-fun x402 () Bool)
(declare-fun x156 () Bool)
(declare-fun x392 () x211)
(declare-fun x143 () Bool)
(declare-fun x86 () Bool)
(declare-fun x166 () x211)
(declare-fun x265 () x211)
(declare-fun x178 () x211)
(declare-fun x27 () Bool)
(declare-fun x5 () Bool)
(declare-fun x139 () Bool)
(declare-fun x180 () Bool)
(declare-fun x93 () Bool)
(declare-fun x110 () x195)
(declare-fun x395 () Bool)
(declare-fun x129 () x195)
(declare-fun x35 () Bool)
(declare-fun x356 () Bool)
(declare-fun x322 () Bool)
(declare-fun x325 () Bool)
(declare-fun x96 () Bool)
(declare-fun x101 () Bool)
(declare-fun x227 () x211)
(declare-fun x360 () Bool)
(declare-fun x293 () x211)
(declare-fun x391 () Bool)
(declare-fun x328 () Bool)
(declare-fun x157 () x211)
(declare-fun x353 () Bool)
(declare-fun x219 () Bool)
(declare-fun x279 () Bool)
(declare-fun x153 () Bool)
(declare-fun x121 () Bool)
(declare-fun x175 () Bool)
(declare-fun x41 () Bool)
(declare-fun x12 () Bool)
(declare-fun x342 () Bool)
(declare-fun x61 () Bool)
(declare-fun x99 () Bool)
(declare-fun x117 () Bool)
(declare-fun x190 () Bool)
(declare-fun x344 () Bool)
(declare-fun x50 () Bool)
(declare-fun x318 () x211)
(declare-fun x17 () Bool)
(declare-fun x135 () Bool)
(declare-fun x216 () Bool)
(declare-fun x388 () x211)
(declare-fun x289 () Bool)
(declare-fun x262 () Bool)
(declare-fun x247 () x211)
(declare-fun x45 () Bool)
(declare-fun x171 () Bool)
(declare-fun x253 () Bool)
(declare-fun x332 () Bool)
(declare-fun x132 () x211)
(declare-fun x31 () Bool)
(declare-fun x382 () x195)
(declare-fun x259 () Bool)
(declare-fun x60 () Bool)
(declare-fun x95 () x195)
(declare-fun x261 () Bool)
(declare-fun x296 () x211)
(declare-fun x309 () x211)
(declare-fun x137 () Bool)
(declare-fun x77 () Bool)
(declare-fun x225 () Bool)
(declare-fun x251 () x211)
(declare-fun x393 () x211)
(declare-fun x317 () Bool)
(declare-fun x306 () Bool)
(declare-fun x291 () Bool)
(declare-fun x170 () Bool)
(declare-fun x214 (x195) Bool)
(declare-fun x303 () Bool)
(declare-fun x106 () Bool)
(declare-fun x208 () Bool)
(declare-fun x370 () Bool)
(declare-fun x385 () x211)
(declare-fun x186 () x195)
(declare-fun x359 () x211)
(declare-fun x294 () Bool)
(declare-fun x340 () Bool)
(declare-fun x222 () Bool)
(declare-fun x75 () Bool)
(declare-fun x88 () Bool)
(declare-fun x207 () x211)
(declare-fun x73 () Bool)
(declare-fun x336 () x195)
(declare-fun x68 () Bool)
(declare-fun x389 () Bool)
(declare-fun x256 () Bool)
(declare-fun x14 () x211)
(declare-fun x206 () Bool)
(declare-fun x161 () Bool)
(declare-fun x212 () Bool)
(declare-fun x366 () Bool)
(declare-fun x119 () Bool)
(declare-fun x375 () Bool)
(declare-fun x192 () Bool)
(declare-fun x187 () x211)
(declare-fun x202 () Bool)
(declare-fun x269 () Bool)
(declare-fun x189 () Bool)
(declare-fun x275 () Bool)
(declare-fun x36 () x195)
(declare-fun x32 () x195)
(declare-fun x136 () Bool)
(declare-fun x264 () x211)
(declare-fun x273 () Bool)
(declare-fun x290 () x195)
(declare-fun x149 () Bool)
(declare-fun x272 () Bool)
(declare-fun x112 () Bool)
(declare-fun x334 (x211 x211) x211)
(declare-fun x380 () Bool)
(declare-fun x55 () Bool)
(declare-fun x217 (x211 x211) x211)
(declare-fun x34 () Bool)
(declare-fun x43 () Bool)
(declare-fun x44 () Bool)
(declare-fun x13 () x211)
(declare-fun x193 () Bool)
(declare-fun x237 () Bool)
(declare-fun x282 () Bool)
(declare-fun x49 () x211)
(declare-fun x398 () x195)
(declare-fun x399 () Bool)
(declare-fun x323 () x211)
(declare-fun x285 () Bool)
(declare-fun x258 () Bool)
(declare-fun x130 () Bool)
(declare-fun x267 () Bool)
(declare-fun x374 () Bool)
(declare-fun x1 () Bool)
(declare-fun x74 () x195)
(declare-fun x133 (x211) x211)
(declare-fun x319 () Bool)
(declare-fun x9 () x211)
(declare-fun x351 () Bool)
(declare-fun x164 () Bool)
(declare-fun x169 () x211)
(declare-fun x188 () x211)
(declare-fun x250 () Bool)
(declare-fun x103 () Bool)
(declare-fun x204 () x211)
(declare-fun x97 () Bool)
(declare-fun x238 () Bool)
(declare-fun x167 () x211)
(declare-fun x308 () Bool)
(declare-fun x390 () Bool)
(declare-fun x378 () Bool)
(declare-fun x185 () x211)
(declare-fun x144 () x195)
(declare-fun x244 () x211)
(declare-fun x254 () Bool)
(declare-fun x85 () Bool)
(declare-fun x341 () x211)
(declare-fun x236 () Bool)
(declare-fun x246 () Bool)
(declare-fun x78 () Bool)
(declare-fun x210 () Bool)
(declare-fun x176 () x195)
(declare-fun x67 () Bool)
(declare-fun x297 () Bool)
(declare-fun x89 () Bool)
(declare-fun x82 () x195)
(declare-fun x215 () Bool)
(declare-fun x15 () Bool)
(declare-fun x314 () Bool)
(declare-fun x20 () x195)
(declare-fun x115 () Bool)
(declare-fun x242 () Bool)
(declare-fun x367 () x211)
(declare-fun x280 () Bool)
(declare-fun x81 () Bool)
(declare-fun x126 () Bool)
(declare-fun x386 () x211)
(declare-fun x131 () Bool)
(declare-fun x165 () Bool)
(declare-fun x249 () x195)
(declare-fun x301 () Bool)
(declare-fun x114 () x211)
(declare-fun x102 () Bool)
(declare-fun x47 () Bool)
(declare-fun x224 () Bool)
(declare-fun x8 () Bool)
(declare-fun x24 () Bool)
(declare-fun x379 () Bool)
(declare-fun x3 () Bool)
(declare-fun x235 () Bool)
(declare-fun x91 () Bool)
(declare-fun x105 () Bool)
(declare-fun x90 () Bool)
(declare-fun x148 () Bool)
(declare-fun x299 () Bool)
(declare-fun x384 () Bool)
(declare-fun x205 () Bool)
(declare-fun x239 () Bool)
(declare-fun x220 () Bool)
(declare-fun x168 () Bool)
(declare-fun x270 () Bool)
(declare-fun x163 () x195)
(declare-fun x277 () Bool)
(declare-fun x145 () Bool)
(declare-fun x357 () Bool)
(declare-fun x243 () Bool)
(declare-fun x179 (x195 x195) x195)
(declare-fun x83 () Bool)
(declare-fun x142 () Bool)
(declare-fun x147 () Bool)
(declare-fun x22 () Bool)
(declare-fun x397 () Bool)
(declare-fun x383 () Bool)
(declare-fun x302 () Bool)
(declare-fun x66 () Bool)
(declare-fun x116 () Bool)
(declare-fun x365 () Bool)
(declare-fun x381 () Bool)
(declare-fun x310 () Bool)
(declare-fun x371 () Bool)
(declare-fun x26 () Bool)
(declare-fun x229 () Bool)
(declare-fun x248 () Bool)
(declare-fun x64 () Bool)
(declare-fun x107 () Bool)
(declare-fun x213 () x211)
(declare-fun x123 () Bool)
(declare-fun x118 () x211)
(declare-fun x120 () x211)
(declare-fun x172 () x195)
(declare-fun x234 () Bool)
(declare-fun x150 () Bool)
(declare-fun x30 () Bool)
(assert (= x228 (not x135)))
(assert (= x137 (and x196 x372)))
(assert (= (x133 x386) x14))
(assert (= (not x70) x142))
(assert (= x324 (ite x297 x110 x398)))
(assert (= x312 (= x371 x397)))
(assert (= x309 (x25 x58 x230)))
(assert (= x23 (and x158 x12)))
(assert (= x123 (and x88 x37)))
(assert (= x401 (not (= x13 x166))))
(assert (= (and x69 x256) x161))
(assert (= x321 (and x123 x391)))
(assert (= (not x276) x159))
(assert (= (not x109) x96))
(assert (= x69 (not x27)))
(assert (= x302 (not x78)))
(assert (= x380 (and x224 x59)))
(assert (distinct x58 x6 x65 x382))
(assert (= x389 (and x209 x146)))
(assert (= (and x353 x212) x121))
(assert (= (not x150) x148))
(assert (= x351 (not x17)))
(assert (= x180 (not x271)))
(assert (= (not (= x207 x13)) x168))
(assert (= x171 (not x302)))
(assert (= (x315 x178) x163))
(assert (= x161 (not x57)))
(assert (= x394 (and x90 x311)))
(assert (= x147 (= x221 x74)))
(assert (= (x133 x87) x323))
(assert (= (not x73) x53))
(assert (= x96 (and x322 x299)))
(assert (= (ite x330 x207 x19) x341))
(assert (= x332 (and x346 x354)))
(assert (= (and x208 x57) x327))
(assert (= (and x150 x340) x53))
(assert (= (not x254) x389))
(assert (= x180 (and x10 x273)))
(assert (= x167 (x133 x157)))
(assert (distinct x13 x251 x244 x213 x268))
(assert (= (not x64) x101))
(assert (= (not x260) x380))
(assert (= x103 (= x336 x32)))
(assert (= (= x13 x19) x358))
(assert (= (ite x164 x227 x188) x114))
(assert (= (not x243) x39))
(assert (= x316 (not x160)))
(assert (= x174 (not x90)))
(assert (= (x25 x58 x398) x87))
(assert (= x39 (and x260 x348)))
(assert (= (= x97 x396) x62))
(assert (= x152 (not x139)))
(assert (= (not x173) x281))
(assert (= x374 (not (= x252 x65))))
(assert (= x216 (not x228)))
(assert (= (not x224) x30))
(assert (= (x133 x127) x307))
(assert (= x110 (x179 x65 x249)))
(assert (= (not x314) x338))
(assert (= (and x108 x105) x329))
(assert (= (and x16 x297) x174))
(assert (= x149 (and x248 x135)))
(assert (= (not x85) x304))
(assert (= x381 (and x8 x61)))
(assert (= (= x72 x76) x373))
(assert (= x81 (and x277 x62 x89 x147 x255 x312 x199 x26 x373 x103)))
(assert (= x349 (x133 x309)))
(assert (= (x25 x58 x110) x386))
(assert (= (and x369 x276) x151))
(assert (= (not (= x65 x110)) x146))
(assert (= (and x193 x73) x316))
(assert (= x47 (not x215)))
(assert (= x378 (= x13 x118)))
(assert (= x222 (not x322)))
(assert (= (not x190) x210))
(assert (= x183 (not x272)))
(assert (= x370 (not x369)))
(assert (= (x179 x65 x74) x252))
(assert (= x362 (and x353 x333)))
(assert (= x160 (not x397)))
(assert (= (and x39 x304) x152))
(assert (= (not x208) x298))
(assert (= x218 (and x363 x68)))
(assert (= (and x27 x203) x305))
(assert (= x181 (and x240 x358)))
(assert (= (not x79) x5))
(assert (= (ite x91 x167 x367) x247))
(assert (= (and x263 x70) x101))
(assert (= (not x10) x241))
(assert (= (and x30 x41) x237))
(assert (= (not x348) x12))
(assert (= (not x41) x149))
(assert (= (= x115 x285) x199))
(assert (= (and x27 x353) x124))
(assert (= x64 (not x299)))
(assert (= (and x402 x218) x66))
(assert (= x28 (not x205)))
(assert (= (not x340) x365))
(assert (= x164 (x214 x230)))
(assert (= x362 (not x88)))
(assert (= (and x338 x212) x142))
(assert (= x234 (and x302 x115)))
(assert (= x331 (and x21 x321)))
(assert (= (not x11) x325))
(assert (= x89 (= x117 x305)))
(assert (= (= x22 x78) x255))
(assert (= (x315 x359) x129))
(assert (= (x334 x392 x114) x178))
(assert (= x159 (and x150 x162)))
(assert (= x209 (= x249 x58)))
(assert (= (not x402) x361))
(assert (= x115 (not x266)))
(assert (= x342 (= x58 x230)))
(assert (= (x217 x349 x213) x46))
(assert (= (and x340 x27) x366))
(assert (= x301 (not x16)))
(assert (= x137 (not x364)))
(assert (= x105 (and x331 x66)))
(assert (= x108 (and x282 x405)))
(assert (= (and x150 x342 x215 x206 x59 x401 x353 x173 x79 x198 x209 x143 x256 x242 x254 x10 x168 x81 x232) x54))
(assert (= (and x3 x177) x370))
(assert (= x23 (not x24)))
(assert (= (not x304) x355))
(assert (= (ite x69 x163 x20) x32))
(assert (= (not x8) x126))
(assert (= (= x74 x58) x240))
(assert (= x363 (and x205 x48)))
(assert (= (and x141 x397) x183))
(assert (= x175 (and x143 x241)))
(assert (= (not x154) x287))
(assert (= x392 (ite x288 x166 x118)))
(assert (= (x217 x87 x213) x367))
(assert (= (not x256) x162))
(assert (= x221 (x179 x65 x36)))
(assert (= x84 (and x60 x224)))
(assert (= (and x365 x69) x225))
(assert (= x298 (and x365 x17)))
(assert (= x188 (x217 x309 x213)))
(assert (= (and x374 x240) x43))
(assert (= x311 (and x328 x327)))
(assert (= x97 (and x270 x193)))
(assert (= x91 (x214 x398)))
(assert (= x36 (ite x12 x398 x172)))
(assert (= x272 (not x346)))
(assert (= (not x136) x119))
(assert (= (not x253) x155))
(assert (= x19 (x217 x127 x213)))
(assert (= x109 (not x112)))
(assert (= (= x131 x287) x277))
(assert (= (x214 x252) x330))
(assert (= (not x68) x31))
(assert (= (and x284 x348) x171))
(assert (= x28 (and x59 x12)))
(assert (= (not x155) x279))
(assert (= (not x202) x308))
(assert x54)
(assert (= x234 (not x269)))
(assert (= x210 (x51 x392 x268)))
(assert (= x237 (not x189)))
(assert (= (and x228 x297) x222))
(assert (= x325 (and x269 x139)))
(assert (= x113 (and x59 x92)))
(assert (= x43 (not x198)))
(assert (= x239 (not x56)))
(assert (= x216 (and x193 x314)))
(assert (= (not x158) x84))
(assert (= x200 (and x256 x148)))
(assert (= (not x203) x262))
(assert (= (ite x30 x129 x324) x72))
(assert (= (not x333) x3))
(assert (= (x214 x110) x288))
(assert (= x227 (x133 x46)))
(assert (= x273 (not x143)))
(assert (= (and x24 x253) x352))
(assert (= (not x270) x124))
(assert (= (and x248 x143) x377))
(assert (= x239 (and x30 x10)))
(assert (= x77 (not x405)))
(assert (= x364 (not x94)))
(assert (= (x217 x307 x213) x265))
(assert (= x279 (and x189 x112)))
(assert (= (not x372) x52))
(assert (= (x133 x313) x166))
(assert (= (and x329 x215) x33))
(assert (= x197 (not x196)))
(assert (= (x334 x392 x247) x359))
(assert (= (and x243 x85) x77))
(assert (= (not x379) x11))
(assert (= x381 (not x42)))
(assert (= x297 (not x248)))
(assert (= x200 (not x3)))
(assert (= (x217 x323 x213) x157))
(assert (= (not x391) x42))
(assert (= x207 (x133 x265)))
(assert (= (and x56 x394) x48))
(assert (= x355 (and x266 x78)))
(assert (= (not x61) x175))
(assert (= (not x353) x177))
(assert (= (= x341 x13) x191))
(assert (= x50 (and x86 x94)))
(assert (= x20 (ite x365 x110 x230)))
(assert (= (= x335 x39) x26))
(assert (= x357 (not x37)))
(assert (= x197 (and x305 x160)))
(assert (= (x217 x386 x213) x118))
(assert (= x232 (= x58 x398)))
(assert (= x113 (not x21)))
(assert (= (and x50 x379) x282))
(assert (= (= x281 x202) x242))
(assert (= x332 (not x86)))
(assert (= (and x271 x44) x126))
(assert (= x115 (and x224 x136)))
(assert (= x151 (not x357)))
(assert (= x352 (not x361)))
(assert (= (not x328) x121))
(assert (= (not x206) x181))
(assert (= (x217 x14 x213) x313))
(assert (= (not x319) x158))
(assert (= (not x263) x225))
(assert (= (not x141) x305))
(assert (= (and x348 x319) x31))
(assert (= x97 (not x354)))
(assert (= (not x59) x44))
(assert (= (and x272 x97) x52))
(assert (= x127 (x25 x58 x252)))
(assert (= (and x340 x256) x262))
(assert (= x119 (and x248 x10)))
(assert (= (and x154 x191) x308))
(assert (= (ite x212 x230 x110) x172))
(assert (= (not x60) x41))
(assert (= (not x193) x212))
(assert (= (and x143 x190) x301))
(assert (= x33 (not x131)))
(assert (= x271 (not x92)))
(assert (= x5 (and x209 x378)))
(assert (= (and x150 x190) x351))
(assert (= (not x338) x366))
(assert (= x377 (not x284)))
(check-sat)
(exit)
